unsat
(:max-memory         18.10
 :memory             17.96
 :nlsat-conflicts    1
 :nlsat-propagations 6
 :nlsat-stages       2
 :num-allocs         7654
 :rlimit-count       2947
 :time               0.00)
